126
10000000
2228239
541174
898343
224986
2261758
2002999
1490575
965853
215517
883334
952357
5338
1021393
1064205
1556530
565573
2188501
864429
1597374
1763498
278898
1396723
584895
2348887
82321
2173713
881592
2422585
76149
630260
161280
869238
1321336
887938
2092854
792549
608602
2058748
2328028
2047484
1199336
169903
1260569
720232
622418
2452034
1061780
802319
688185
1788105
1272503
506760
1837722
737358
122916
514210
1838195
497049
2043170
2294092
1499189
1093290
651761
163
2050245
1878735
2387510
2076682
656094
1369765
156069
640258
576831
1587319
1582715
1624
579630
335664
1194383
1896896
236992
2317444
1076730
1772090
1160682
1547667
2113458
522990
1628340
807775
2425310
2209496
1068549
1372509
549202
253341
1319867
2130583
1935291
2494474
1118374
682850
1661082
1611386
67098
266587
1576937
392427
1977041
725544
1955176
955394
1380495
1858655
1391573
2063657
434032
555367
302934
954005
1952107
354475
190105
270726
2156228
2223220
